(set-logic ALL)
(declare-const num_VAR Int)
(declare-const base_VAR Int)
(assert (not (< num_VAR 0)))
(assert (not (= base_VAR 0)))
(assert (= base_VAR 1))
(check-sat)
(get-value (num_VAR))
(get-value (base_VAR))
